HUN,8,6,706
1,28,2,24,3,28,0,28,5,25,4,30
4,26,3,24,5,28,1,28,0,26,2,21
5,24,3,27,4,24,1,28,0,27,2,28
1,29,4,22,0,21,3,28,5,26,2,24
5,30,2,26,0,28,4,21,1,28,3,22
2,26,3,26,1,26,5,21,4,21,0,22
1,27,0,30,4,29,2,22,5,25,3,28
1,29,5,22,4,21,0,26,3,26,2,30
